NAME : pr144.tour
COMMENT : Optimum tour for pr144.tsp (Length 58537)
TYPE : TOUR
DIMENSION : 144
TOUR_SECTION
135
134
133
132
131
115
130
129
128
127
126
125
124
123
122
121
120
119
118
117
116
92
91
73
74
75
76
77
78
89
90
98
97
94
93
95
96
99
100
101
102
103
88
87
61
62
63
64
65
66
67
68
69
70
72
71
45
44
43
14
13
12
11
10
9
7
8
19
20
18
17
16
15
42
41
21
40
39
38
37
23
22
6
5
4
3
1
2
28
29
27
26
25
24
36
35
30
34
33
32
31
49
50
51
52
53
54
55
56
57
58
46
47
48
59
60
79
80
81
82
83
84
85
86
109
108
105
104
106
107
110
111
112
113
114
144
143
142
141
140
139
138
137
136
-1
EOF
